
List of user-set options:

                                    Name   Value                used
                           compl_inf_tol = 1                     yes
                         constr_viol_tol = 1                     yes
                            dual_inf_tol = 1000                  yes
                           linear_solver = ma97                  yes
                              ma86_small = 1e-30                  no
                                  ma86_u = 0.0001                 no
                              ma97_order = best                  yes
                              ma97_small = 1e-30                 yes
                            ma97_switch1 = at_start              yes
                            ma97_switch2 = od_hd_reuse           yes
                                  ma97_u = 1e-06                 yes
                               ma97_umax = 0.5                   yes
                                max_iter = 1000                  yes
                    max_refinement_steps = 20                    yes
                    min_refinement_steps = 5                     yes
                                 mu_init = 1e-06                 yes
           mu_superlinear_decrease_power = 1.25                  yes
                   nlp_scaling_min_value = 1e-08                 yes
                        option_file_name = Preset_Case_563_pf.opt  yes
                             output_file = ./tmp/Preset_Case_563_pf.output  yes
                      print_user_options = yes                   yes
                                     tol = 0.0001                yes
                   warm_start_bound_frac = 1e-20                 yes
                   warm_start_bound_push = 1e-20                 yes
                   warm_start_init_point = yes                   yes
              warm_start_mult_bound_push = 1e-20                 yes
                warm_start_mult_init_max = 1e+40                 yes
             warm_start_slack_bound_frac = 1e-20                 yes
             warm_start_slack_bound_push = 1e-20                 yes

******************************************************************************
This program contains Ipopt, a library for large-scale nonlinear optimization.
 Ipopt is released as open source code under the Eclipse Public License (EPL).
         For more information visit http://projects.coin-or.org/Ipopt
******************************************************************************

This is Ipopt version 3.12.10, running with linear solver ma97.

Number of nonzeros in equality constraint Jacobian...:   103066
Number of nonzeros in inequality constraint Jacobian.:      145
Number of nonzeros in Lagrangian Hessian.............:    39976

Total number of variables............................:    29160
                     variables with only lower bounds:    11314
                variables with lower and upper bounds:    14309
                     variables with only upper bounds:        0
Total number of equality constraints.................:    29077
Total number of inequality constraints...............:       21
        inequality constraints with only lower bounds:        0
   inequality constraints with lower and upper bounds:        0
        inequality constraints with only upper bounds:       21

iter    objective    inf_pr   inf_du lg(mu)  ||d||  lg(rg) alpha_du alpha_pr  ls
   0 -9.8286851e+03 1.23e+00 3.85e+04  -6.0 0.00e+00    -  0.00e+00 0.00e+00   0
   1 -9.8279805e+03 1.17e+00 3.65e+04  -6.0 1.09e+03    -  1.00e+00 5.30e-02h  4
   2 -9.8273666e+03 1.11e+00 3.47e+04  -6.0 1.04e+03    -  1.00e+00 4.83e-02h  4
   3 -9.8262962e+03 1.01e+00 3.17e+04  -6.0 1.00e+03    -  1.00e+00 8.77e-02h  3
   4 -9.8254988e+03 9.42e-01 2.94e+04  -6.0 9.31e+02    -  1.00e+00 7.04e-02h  3
   5 -9.8243084e+03 8.37e-01 2.61e+04  -6.0 8.77e+02    -  1.00e+00 1.12e-01h  2
   6 -9.8231269e+03 7.35e-01 2.29e+04  -6.0 7.96e+02    -  1.00e+00 1.23e-01h  1
   7r-9.8231269e+03 7.35e-01 1.00e+03  -0.2 0.00e+00    -  0.00e+00 7.19e-08R  2
   8r-9.8231297e+03 7.34e-01 1.21e+03  -0.2 6.85e+04    -  2.04e-05 5.11e-06f  1
   9r-9.8231310e+03 7.19e-01 1.00e+03  -0.2 5.19e+03    -  1.13e-05 6.18e-05f  1
iter    objective    inf_pr   inf_du lg(mu)  ||d||  lg(rg) alpha_du alpha_pr  ls
  10r-9.8231320e+03 7.03e-01 2.64e+03  -0.2 4.48e+03    -  2.39e-04 6.59e-05f  1
  11 -9.8231319e+03 7.03e-01 6.80e+06  -6.0 1.93e+02    -  2.82e-01 5.06e-05h  1
  12 -9.8231210e+03 7.02e-01 1.60e+08  -6.0 7.14e+02    -  5.21e-05 1.23e-03h  1
  13 -9.8231210e+03 7.02e-01 1.60e+08  -6.0 1.03e+04    -  1.29e-05 5.97e-07h  1
  14 -9.8231213e+03 7.02e-01 1.60e+08  -6.0 1.14e+05    -  2.68e-06 7.30e-07h  1
  15 -9.8231215e+03 7.02e-01 1.60e+08  -6.0 6.86e+05    -  7.18e-07 1.15e-07f  1
In iteration 15, 1 Slack too small, adjusting variable bound
  16 -9.8231215e+03 7.02e-01 1.60e+08  -6.0 8.63e+03    -  1.33e-06 1.05e-09h  1
  17 -9.8231216e+03 7.02e-01 1.60e+08  -6.0 1.61e+04    -  2.93e-07 2.48e-07h  1
  18 -9.8231217e+03 7.02e-01 1.60e+08  -6.0 3.23e+04    -  7.29e-07 2.24e-07h  1
  19 -9.8231218e+03 7.02e-01 1.60e+08  -6.0 1.18e+05    -  7.86e-08 4.94e-08f  1
iter    objective    inf_pr   inf_du lg(mu)  ||d||  lg(rg) alpha_du alpha_pr  ls
  20 -9.8231219e+03 7.02e-01 1.60e+08  -6.0 1.60e+05    -  1.79e-07 3.06e-08h  1
  21 -9.8231219e+03 7.02e-01 1.60e+08  -6.0 1.93e+05    -  1.02e-08 2.57e-11h 10
  22r-9.8231219e+03 7.02e-01 1.00e+03  -0.3 0.00e+00    -  0.00e+00 3.13e-07R 13
  23r-9.8231181e+03 7.02e-01 1.19e+03  -0.3 6.36e+03    -  5.35e-05 5.83e-07f  1
  24r-9.8231168e+03 6.83e-01 1.11e+03  -0.3 3.38e+03    -  3.55e-06 7.88e-05f  1
  25r-9.8231157e+03 6.67e-01 3.00e+03  -0.3 2.14e+03    -  3.26e-04 6.71e-05f  1
  26 -9.8231157e+03 6.67e-01 1.43e+06  -6.0 1.84e+02    -  2.94e-01 3.89e-05h  1
  27 -9.8231157e+03 6.67e-01 1.41e+06  -6.0 3.94e+05    -  4.92e-07 4.19e-09h  2
  28 -9.8231157e+03 6.67e-01 1.41e+06  -6.0 1.49e+06    -  1.08e-07 5.54e-10h  2
  29r-9.8231157e+03 6.67e-01 1.00e+03  -0.4 0.00e+00    -  0.00e+00 9.81e-09R  2
iter    objective    inf_pr   inf_du lg(mu)  ||d||  lg(rg) alpha_du alpha_pr  ls
  30r-9.8231153e+03 6.65e-01 4.83e+03  -0.4 1.02e+04    -  4.44e-04 4.08e-06f  1
  31r-9.8231054e+03 6.22e-01 4.31e+03  -0.4 1.33e+03    -  4.34e-04 5.16e-04f  1
  32 -9.8231052e+03 6.22e-01 3.33e+03  -6.0 1.52e+02    -  3.48e-01 1.05e-04h  1
  33 -9.8231052e+03 6.22e-01 6.69e+04  -6.0 1.86e+04    -  5.04e-06 1.29e-07h  2
  34 -9.8231053e+03 6.22e-01 6.03e+04  -6.0 2.57e+05    -  1.43e-07 1.80e-07h  1
  35 -9.8231056e+03 6.22e-01 3.62e+04  -6.0 6.08e+05    -  9.14e-08 1.49e-07f  1
  36 -9.8231057e+03 6.22e-01 3.32e+03  -6.0 1.06e+06    -  3.35e-12 4.46e-08f  1
  37 -9.8231059e+03 6.22e-01 6.35e+05  -6.0 1.98e+06    -  4.84e-07 2.40e-08f  1
  38 -9.8231061e+03 6.22e-01 1.68e+06  -6.0 5.15e+06    -  3.09e-07 1.87e-08f  1
In iteration 38, 1 Slack too small, adjusting variable bound
  39 -9.8231061e+03 6.22e-01 2.53e+06  -6.0 1.12e+05    -  6.27e-08 5.93e-10h  1
In iteration 39, 1 Slack too small, adjusting variable bound
iter    objective    inf_pr   inf_du lg(mu)  ||d||  lg(rg) alpha_du alpha_pr  ls
  40 -9.8231062e+03 6.22e-01 5.67e+06  -6.0 1.34e+05    -  2.18e-07 4.74e-08h  1
In iteration 40, 1 Slack too small, adjusting variable bound
  41 -9.8231064e+03 6.22e-01 7.32e+06  -6.0 2.15e+05    -  1.34e-07 1.00e-07f  1
  42r-9.8231064e+03 6.22e-01 1.00e+03  -0.5 0.00e+00    -  0.00e+00 1.05e-08R  2
  43r-9.8231063e+03 6.22e-01 1.21e+04  -0.5 1.23e+03    -  2.57e-03 9.35e-06f  1
  44r-9.8230727e+03 6.17e-01 1.83e+04  -0.5 5.43e+02    -  6.38e-03 3.57e-03f  1
  45 -9.8230723e+03 6.16e-01 8.18e+02  -6.0 8.86e+01    -  3.28e-01 4.01e-04h  1
  46r-9.8230723e+03 6.16e-01 9.99e+02  -1.5 0.00e+00    -  0.00e+00 4.72e-08R  2
  47r-9.8230722e+03 6.16e-01 6.22e+03  -1.5 2.20e+02    -  1.90e-02 4.77e-05f  1
  48r-9.8230511e+03 5.32e-01 7.15e+03  -1.5 8.50e+01    -  2.87e-02 1.62e-02f  1
  49 -9.8230505e+03 5.32e-01 9.02e+02  -6.0 2.51e+02    -  1.42e-01 2.41e-04h  1
iter    objective    inf_pr   inf_du lg(mu)  ||d||  lg(rg) alpha_du alpha_pr  ls
  50r-9.8230505e+03 5.32e-01 9.99e+02  -2.2 0.00e+00    -  0.00e+00 6.47e-08R  2
  51r-9.8230494e+03 5.10e-01 9.92e+02  -2.2 1.10e+02    -  1.54e-02 1.00e-03f  1
  52 -9.8230405e+03 5.08e-01 1.23e+03  -6.0 1.80e+02    -  3.13e-01 3.18e-03h  1
  53 -9.8230393e+03 5.08e-01 1.23e+03  -6.0 7.12e+02    -  1.02e-02 1.39e-04h  1
In iteration 53, 1 Slack too small, adjusting variable bound
  54 -9.8230393e+03 5.08e-01 5.84e+04  -6.0 5.39e+02    -  6.14e-04 1.04e-09h  1
  55 -9.8230397e+03 5.08e-01 1.47e+05  -6.0 4.79e+03    -  3.21e-05 1.01e-05h  1
  56 -9.8230403e+03 5.08e-01 2.09e+05  -6.0 3.34e+04    -  7.35e-06 5.13e-06f  1
In iteration 56, 1 Slack too small, adjusting variable bound
  57 -9.8230417e+03 5.08e-01 6.08e+05  -6.0 2.24e+05    -  4.27e-06 2.11e-06f  1
  58 -9.8230427e+03 5.08e-01 2.03e+06  -6.0 5.70e+06    -  3.71e-07 6.94e-08f  1
  59r-9.8230427e+03 5.08e-01 1.00e+03  -2.8 0.00e+00    -  0.00e+00 3.63e-12R  2
iter    objective    inf_pr   inf_du lg(mu)  ||d||  lg(rg) alpha_du alpha_pr  ls
  60r-9.8219399e+03 4.65e-01 9.98e+02  -2.8 1.50e+05    -  4.92e-03 1.00e-03f  1
  61r-9.8219403e+03 4.63e-01 9.92e+02  -2.8 2.15e+02    -  6.50e-03 4.96e-03f  1
  62r-9.8219401e+03 4.58e-01 9.75e+02  -2.8 1.82e+02    -  3.93e-02 1.10e-02f  1
  63r-9.8219398e+03 4.52e-01 1.64e+04  -2.8 3.36e+01    -  3.62e-01 1.34e-02f  1
  64r-9.8219266e+03 3.23e-01 1.45e+04  -2.8 3.04e+01    -  3.65e-01 2.85e-01f  1
  65r-9.8218573e+03 1.43e-01 4.72e+03  -2.8 1.86e+01    -  3.97e-01 5.59e-01f  1
  66r-9.8216185e+03 3.49e-02 1.23e+04  -2.8 1.03e+01    -  4.15e-01 7.59e-01f  1
  67r-9.8208441e+03 1.87e-02 1.30e+04  -2.8 1.09e+01    -  4.73e-01 7.91e-01f  1
  68r-9.8193216e+03 1.24e-02 4.41e+03  -2.8 1.56e+01    -  7.04e-01 7.93e-01f  1
  69r-9.8154100e+03 2.05e-02 7.68e+03  -2.8 3.14e+01    -  5.41e-01 1.00e+00f  1
iter    objective    inf_pr   inf_du lg(mu)  ||d||  lg(rg) alpha_du alpha_pr  ls
  70r-9.8138684e+03 1.87e-02 1.76e+03  -2.8 3.01e+01    -  6.06e-01 1.00e+00h  1
  71r-9.8138447e+03 2.49e-02 8.16e+02  -2.8 2.42e+01    -  9.97e-01 2.42e-01h  2
  72r-9.8209955e+03 1.84e+01 7.32e+02  -2.8 7.86e+03    -  9.83e-02 1.11e-01f  1
  73r-9.8218157e+03 2.48e-01 6.41e+02  -2.8 1.23e+02    -  1.89e-04 1.00e+00f  1
  74r-9.8190063e+03 1.63e-02 1.70e+01  -2.8 3.62e+02    -  1.00e+00 1.00e+00H  1
  75r-9.8156507e+03 7.34e-04 8.21e-01  -2.8 4.20e+02    -  1.00e+00 1.00e+00H  1
  76 -9.8164635e+03 2.24e-03 3.80e+02  -6.0 4.20e+01    -  5.67e-01 7.71e-02f  1
  77 -9.8164641e+03 2.24e-03 2.93e+04  -6.0 8.88e+02    -  5.89e-01 1.79e-04h  1
  78 -9.8168965e+03 1.10e-01 3.20e+04  -6.0 8.89e+02    -  6.15e-01 7.63e-02f  2
  79 -9.8174550e+03 1.65e-01 6.09e+04  -6.0 8.34e+02    -  6.63e-01 6.13e-02f  1
iter    objective    inf_pr   inf_du lg(mu)  ||d||  lg(rg) alpha_du alpha_pr  ls
  80 -9.8175089e+03 1.75e-01 1.56e+05  -6.0 7.91e+02    -  2.85e-01 3.13e-02h  3
  81 -9.8175634e+03 1.99e-01 2.85e+05  -6.0 7.69e+02    -  1.34e-01 4.82e-02h  2
  82 -9.8175667e+03 1.99e-01 6.76e+05  -6.0 7.37e+02    -  6.50e-02 1.25e-02h  3
  83 -9.8175778e+03 1.99e-01 2.39e+06  -6.0 7.28e+02    -  9.58e-02 1.90e-02h  2
  84 -9.8176268e+03 1.99e-01 9.39e+06  -6.0 1.03e+03    -  5.47e-02 9.62e-03f  2
  85 -9.8178491e+03 1.98e-01 1.38e+07  -6.0 4.11e+03    -  1.35e-02 9.73e-03f  1
In iteration 85, 1 Slack too small, adjusting variable bound
  86 -9.8179762e+03 1.98e-01 3.15e+07  -6.0 3.70e+05    -  1.24e-04 7.55e-05f  1
  87r-9.8179762e+03 1.98e-01 1.00e+03  -0.8 0.00e+00    -  0.00e+00 4.97e-07R  4
  88r-9.8179759e+03 1.89e-01 1.89e+04  -0.8 1.08e+03    -  2.81e-03 4.25e-05f  1
  89r-9.8179601e+03 9.82e-02 2.85e+04  -0.8 6.56e+02    -  6.58e-03 1.83e-03f  1
iter    objective    inf_pr   inf_du lg(mu)  ||d||  lg(rg) alpha_du alpha_pr  ls
  90 -9.8179613e+03 9.82e-02 2.33e+03  -6.0 9.03e+01    -  4.60e-01 1.97e-04h  1
  91 -9.8179613e+03 9.82e-02 5.41e+05  -6.0 3.40e+03    -  1.54e-04 3.33e-07h  2
  92 -9.8179637e+03 9.82e-02 2.66e+06  -6.0 8.54e+05    -  2.95e-06 5.62e-07f  1
  93 -9.8179695e+03 9.82e-02 5.54e+06  -6.0 3.40e+06    -  1.02e-06 4.13e-07f  1
  94 -9.8179698e+03 9.82e-02 5.05e+06  -6.0 2.89e+06    -  5.76e-08 1.18e-07f  1
  95r-9.8179698e+03 9.82e-02 1.00e+03  -1.1 0.00e+00    -  0.00e+00 8.58e-08R  2
  96r-9.8179695e+03 9.43e-02 3.11e+04  -1.1 2.57e+02    -  1.35e-02 4.02e-05f  1
  97r-9.8179111e+03 3.23e-02 4.47e+04  -1.1 1.69e+02    -  1.14e-01 9.52e-03f  1
  98 -9.8179136e+03 3.23e-02 1.21e+03  -6.0 5.02e+01    -  4.86e-01 4.01e-04h  1
  99r-9.8179136e+03 3.23e-02 1.00e+03  -1.6 0.00e+00    -  0.00e+00 6.95e-08R  2
iter    objective    inf_pr   inf_du lg(mu)  ||d||  lg(rg) alpha_du alpha_pr  ls
 100r-9.8179134e+03 2.88e-02 9.15e+03  -1.6 8.47e+01    -  2.12e-02 1.06e-04f  1
 101 -9.8179134e+03 2.88e-02 1.52e+06  -6.0 2.38e+02    -  1.11e-01 7.24e-07h  2
 102 -9.8179135e+03 2.88e-02 1.41e+06  -6.0 2.94e+04    -  1.72e-06 6.93e-07h  1
 103 -9.8179139e+03 2.88e-02 8.62e+05  -6.0 7.52e+04    -  6.66e-06 1.01e-06f  1
 104 -9.8179160e+03 2.88e-02 8.70e+05  -6.0 6.85e+05    -  1.21e-06 8.15e-07f  1
 105 -9.8179162e+03 2.88e-02 8.36e+05  -6.0 2.54e+06    -  1.62e-08 3.26e-08f  1
 106 -9.8179165e+03 2.88e-02 8.39e+06  -6.0 3.03e+06    -  1.70e-06 4.05e-08f  1
 107r-9.8179165e+03 2.88e-02 1.00e+03  -1.6 0.00e+00    -  0.00e+00 4.91e-08R  2
 108r-9.8179165e+03 2.81e-02 5.35e+03  -1.6 1.28e+02    -  1.20e-02 2.49e-05f  1
 109r-9.8178945e+03 1.75e-02 7.29e+03  -1.6 5.47e+01    -  2.31e-02 1.30e-02f  1
iter    objective    inf_pr   inf_du lg(mu)  ||d||  lg(rg) alpha_du alpha_pr  ls
 110 -9.8178954e+03 1.75e-02 2.78e+03  -6.0 1.04e+02    -  4.23e-01 1.52e-04h  1
 111r-9.8178954e+03 1.75e-02 1.00e+03  -2.9 0.00e+00    -  0.00e+00 3.02e-08R  2
 112r-9.8178952e+03 1.75e-02 3.20e+03  -2.9 2.00e+01    -  1.78e-01 1.00e-03f  1
 113 -9.8178952e+03 1.75e-02 9.88e+04  -6.0 1.65e+02    -  5.75e-02 2.91e-07h  2
 114 -9.8178954e+03 1.75e-02 3.41e+05  -6.0 1.26e+05    -  2.11e-06 3.25e-07f  1
 115 -9.8178965e+03 1.75e-02 1.25e+06  -6.0 7.25e+05    -  1.52e-06 4.09e-07f  1
 116 -9.8178967e+03 1.75e-02 1.26e+06  -6.0 2.50e+06    -  4.35e-08 4.05e-08f  1
 117 -9.8178970e+03 1.75e-02 8.13e+06  -6.0 2.82e+06    -  1.60e-06 7.16e-08f  1
 118r-9.8178970e+03 1.75e-02 1.00e+03  -3.5 0.00e+00    -  0.00e+00 3.12e-08R  2
 119r-9.8178969e+03 1.74e-02 9.98e+02  -3.5 3.51e+01    -  5.41e-02 1.00e-03f  1
iter    objective    inf_pr   inf_du lg(mu)  ||d||  lg(rg) alpha_du alpha_pr  ls
 120r-9.8178969e+03 1.74e-02 9.99e+02  -4.1 0.00e+00    -  0.00e+00 8.14e-08R  2
 121r-9.8178968e+03 1.73e-02 9.99e+02  -4.1 6.16e+01    -  1.75e-02 7.16e-04f  1
 122 -9.8178970e+03 1.73e-02 2.15e+06  -6.0 1.39e+02    -  3.44e-01 2.91e-05h  1
 123r-9.8178970e+03 1.73e-02 1.00e+03  -4.2 0.00e+00    -  0.00e+00 1.41e-08R  2
 124r-9.8178970e+03 1.66e-02 9.97e+02  -4.2 8.33e+01    -  2.22e-02 2.31e-03f  1
 125r-9.8178970e+03 1.66e-02 9.99e+02  -4.1 0.00e+00    -  0.00e+00 4.33e-08R  2
 126r-9.8178970e+03 1.65e-02 9.98e+02  -4.1 6.40e+01    -  2.52e-03 5.27e-04f  1
 127 -9.8178971e+03 1.65e-02 6.55e+07  -6.0 1.15e+02    -  3.95e-01 2.31e-05h  1
 128r-9.8178971e+03 1.65e-02 1.00e+03  -4.2 0.00e+00    -  0.00e+00 2.31e-08R  2
 129r-9.8178972e+03 1.60e-02 1.30e+03  -4.2 8.42e+01    -  3.26e-02 1.75e-03f  1
iter    objective    inf_pr   inf_du lg(mu)  ||d||  lg(rg) alpha_du alpha_pr  ls
 130r-9.8178972e+03 1.60e-02 9.99e+02  -4.2 0.00e+00    -  0.00e+00 3.52e-08R  2
 131r-9.8178972e+03 1.60e-02 9.99e+02  -4.2 6.40e+01    -  1.04e-02 3.41e-04f  1
 132 -9.8178973e+03 1.60e-02 1.38e+07  -6.0 1.06e+02    -  4.16e-01 1.38e-05h  1
 133r-9.8178973e+03 1.60e-02 1.00e+03  -4.2 0.00e+00    -  0.00e+00 3.14e-08R  2
 134r-9.8178973e+03 1.48e-02 9.95e+02  -4.2 8.13e+01    -  3.31e-02 4.66e-03f  1
 135 -9.8178973e+03 1.48e-02 2.71e+05  -6.0 9.06e+01    -  5.91e-02 5.46e-08h  3
 136 -9.8178977e+03 1.48e-02 3.73e+06  -6.0 5.44e+05    -  4.22e-06 2.19e-07f  1
 137 -9.8178981e+03 1.48e-02 1.14e+07  -6.0 2.80e+06    -  1.37e-06 2.75e-07f  1
 138r-9.8178981e+03 1.48e-02 1.00e+03  -4.2 0.00e+00    -  0.00e+00 3.00e-08R  2
 139r-9.8178981e+03 1.46e-02 9.98e+02  -4.2 5.77e+01    -  1.46e-02 1.27e-03f  1
iter    objective    inf_pr   inf_du lg(mu)  ||d||  lg(rg) alpha_du alpha_pr  ls
 140r-9.8178981e+03 1.46e-02 9.99e+02  -4.2 0.00e+00    -  0.00e+00 4.30e-08R  2
 141r-9.8178981e+03 1.43e-02 9.98e+02  -4.2 5.46e+01    -  1.31e-02 1.17e-03f  1
 142 -9.8178985e+03 1.43e-02 1.10e+08  -6.0 6.60e+01    -  5.49e-01 5.68e-05h  1
 143r-9.8178985e+03 1.43e-02 1.00e+03  -4.2 0.00e+00    -  0.00e+00 1.19e-08R  2
 144r-9.8178986e+03 1.31e-02 1.23e+03  -4.2 7.64e+01    -  4.29e-02 6.02e-03f  1
 145 -9.8178986e+03 1.31e-02 4.17e+05  -6.0 7.55e+01    -  1.34e-01 1.61e-07h  2
 146r-9.8178986e+03 1.31e-02 1.00e+03  -4.2 0.00e+00    -  0.00e+00 1.13e-07R  2
 147r-9.8178986e+03 1.28e-02 9.97e+02  -4.2 4.71e+01    -  2.40e-02 1.95e-03f  1
 148 -9.8178986e+03 1.28e-02 4.18e+05  -6.0 7.34e+01    -  1.12e-01 1.35e-07h  2
 149r-9.8178986e+03 1.28e-02 1.00e+03  -4.2 0.00e+00    -  0.00e+00 1.02e-07R  2
iter    objective    inf_pr   inf_du lg(mu)  ||d||  lg(rg) alpha_du alpha_pr  ls
 150r-9.8178987e+03 1.16e-02 9.92e+02  -4.2 4.45e+01    -  2.37e-02 7.44e-03f  1
 151 -9.8178987e+03 1.16e-02 1.43e+05  -6.0 2.61e+02    -  1.97e-01 2.88e-07h  2
 152r-9.8178987e+03 1.16e-02 1.00e+03  -4.2 0.00e+00    -  0.00e+00 1.66e-07R  2
 153r-9.8178987e+03 1.12e-02 9.96e+02  -4.2 4.48e+01    -  2.07e-02 3.42e-03f  1
 154 -9.8178987e+03 1.12e-02 1.70e+04  -6.0 2.97e+02    -  5.87e-02 2.48e-07h  2
 155r-9.8178987e+03 1.12e-02 1.00e+03  -4.2 0.00e+00    -  0.00e+00 1.30e-07R  2
 156r-9.8178990e+03 1.04e-02 9.92e+02  -4.2 7.41e+01    -  1.57e-02 6.68e-03f  1
 157 -9.8178990e+03 1.04e-02 2.46e+03  -6.0 3.07e+02    -  9.07e-02 6.64e-07h  1
 158r-9.8178990e+03 1.04e-02 1.00e+03  -4.1 0.00e+00    -  0.00e+00 1.39e-09R  2
 159r-9.8178991e+03 1.03e-02 9.99e+02  -4.1 7.49e+01    -  2.05e-02 1.00e-03f  1
iter    objective    inf_pr   inf_du lg(mu)  ||d||  lg(rg) alpha_du alpha_pr  ls
 160r-9.8178991e+03 1.03e-02 9.99e+02  -4.2 0.00e+00    -  0.00e+00 3.92e-08R  2
 161r-9.8178991e+03 1.01e-02 9.98e+02  -4.2 2.67e+01    -  3.34e-02 1.78e-03f  1
 162 -9.8178998e+03 1.01e-02 6.78e+07  -6.0 3.42e+01    -  5.63e-01 1.07e-04f  1
 163r-9.8178998e+03 1.01e-02 1.00e+03  -4.2 0.00e+00    -  0.00e+00 3.94e-08R  2
 164r-9.8178999e+03 9.38e-03 1.27e+03  -4.2 4.06e+01    -  5.96e-02 6.78e-03f  1
 165 -9.8178999e+03 9.38e-03 2.71e+05  -6.0 6.44e+01    -  1.14e-01 2.10e-07h  2
 166r-9.8178999e+03 9.38e-03 1.00e+03  -4.2 0.00e+00    -  0.00e+00 1.44e-07R  2
 167r-9.8178999e+03 9.13e-03 9.97e+02  -4.2 2.71e+01    -  4.17e-02 2.81e-03f  1
 168 -9.8178999e+03 9.13e-03 2.69e+05  -6.0 6.36e+01    -  1.04e-01 1.93e-07h  2
 169r-9.8178999e+03 9.13e-03 1.00e+03  -4.2 0.00e+00    -  0.00e+00 1.37e-07R  2
iter    objective    inf_pr   inf_du lg(mu)  ||d||  lg(rg) alpha_du alpha_pr  ls
 170r-9.8178999e+03 8.28e-03 9.89e+02  -4.2 2.67e+01    -  4.24e-02 9.95e-03f  1
 171 -9.8178999e+03 8.28e-03 6.41e+04  -6.0 2.64e+02    -  1.98e-01 4.17e-07h  2
 172r-9.8178999e+03 8.28e-03 1.00e+03  -4.2 0.00e+00    -  0.00e+00 2.46e-07R  2
 173r-9.8178999e+03 8.07e-03 9.97e+02  -4.2 3.35e+01    -  4.13e-02 2.93e-03f  1
 174 -9.8178999e+03 8.07e-03 7.03e+03  -6.0 3.00e+02    -  6.54e-02 6.06e-07h  1
 175r-9.8178999e+03 8.07e-03 1.00e+03  -4.2 0.00e+00    -  0.00e+00 1.23e-08R  2
 176r-9.8179004e+03 7.45e-03 9.90e+02  -4.2 6.62e+01    -  3.07e-02 9.30e-03f  1
 177r-9.8179009e+03 6.92e-03 1.48e+03  -4.2 5.15e+01    -  9.57e-02 1.06e-02f  1
 178r-9.8179015e+03 5.86e-03 1.86e+03  -4.2 3.83e+01    -  8.78e-02 3.71e-02f  1
 179r-9.8179009e+03 5.49e-03 1.90e+03  -4.2 3.32e+01    -  2.98e-02 1.99e-02f  1
iter    objective    inf_pr   inf_du lg(mu)  ||d||  lg(rg) alpha_du alpha_pr  ls
 180r-9.8179005e+03 5.34e-03 2.21e+03  -4.2 2.48e+01    -  4.85e-02 9.10e-03f  1
 181r-9.8178961e+03 6.23e-03 2.14e+03  -4.2 2.00e+01    -  6.88e-02 6.03e-02f  1
 182r-9.8178936e+03 6.14e-03 3.12e+03  -4.2 1.53e+01    -  1.54e-01 1.77e-02f  1
 183r-9.8178829e+03 5.84e-03 3.37e+03  -4.2 1.77e+01    -  1.18e-01 5.22e-02f  1
 184r-9.8178803e+03 5.76e-03 5.64e+03  -4.2 1.38e+01    -  4.32e-01 1.47e-02f  1
 185r-9.8178444e+03 7.85e-03 5.00e+03  -4.2 1.33e+01    -  9.42e-02 1.08e-01f  1
 186r-9.8177969e+03 1.16e-02 5.81e+03  -4.2 1.37e+01    -  6.80e-01 1.47e-01f  1
 187r-9.8176402e+03 2.82e-02 5.18e+03  -4.2 2.81e+01    -  5.09e-01 1.68e-01f  1
 188r-9.8169375e+03 1.67e-02 2.95e+03  -4.2 4.94e+01    -  4.59e-01 4.32e-01f  1
 189r-9.8164562e+03 1.12e-02 2.08e+03  -4.2 3.19e+01    -  6.69e-01 3.33e-01f  1
iter    objective    inf_pr   inf_du lg(mu)  ||d||  lg(rg) alpha_du alpha_pr  ls
 190r-9.8151666e+03 1.42e-02 7.53e+02  -4.2 3.62e+01    -  9.47e-01 6.53e-01f  1
 191r-9.8135968e+03 9.06e-03 1.32e+01  -4.2 2.01e+01    -  1.00e+00 1.00e+00f  1
 192r-9.8137380e+03 7.57e-04 1.10e+00  -4.2 4.55e+00    -  1.00e+00 1.00e+00h  1
 193r-9.8137202e+03 1.64e-04 1.18e-01  -4.2 1.12e+00    -  1.00e+00 1.00e+00h  1
 194 -9.8138373e+03 1.63e-04 2.96e+03  -6.0 1.69e+02    -  7.40e-01 3.84e-03f  1
 195 -9.8138373e+03 1.63e-04 1.09e+05  -6.0 7.46e+02    -  2.07e-02 8.48e-08h  3
 196 -9.8138525e+03 1.63e-04 5.30e+05  -6.0 7.53e+02    -  1.65e-02 3.42e-03f  1
 197r-9.8138525e+03 1.63e-04 1.00e+03  -3.9 0.00e+00    -  0.00e+00 3.44e-07R 12
 198r-9.8138525e+03 1.63e-04 3.69e+03  -3.9 9.81e+00    -  1.45e-01 1.00e-03f  1
 199 -9.8138525e+03 1.63e-04 4.53e+05  -6.0 1.82e+02    -  1.15e-01 1.27e-07h  2
iter    objective    inf_pr   inf_du lg(mu)  ||d||  lg(rg) alpha_du alpha_pr  ls
 200r-9.8138525e+03 1.63e-04 1.00e+03  -4.5 0.00e+00    -  0.00e+00 4.55e-07R 10
 201r-9.8138525e+03 1.63e-04 5.75e+03  -4.5 3.43e+00    -  9.74e-01 1.00e-03f  1
 202 -9.8138525e+03 1.63e-04 6.77e+04  -6.0 1.50e+02    -  2.14e-02 7.19e-08h  2
 203r-9.8138525e+03 1.63e-04 1.00e+03  -5.0 0.00e+00    -  0.00e+00 4.57e-07R 10
 204r-9.8138525e+03 1.60e-04 1.27e+03  -5.0 1.51e+01    -  6.11e-01 1.36e-03f  1
 205 -9.8138525e+03 1.60e-04 4.50e+05  -6.0 3.02e+02    -  6.89e-02 1.92e-08h  4
 206r-9.8138525e+03 1.60e-04 1.00e+03  -5.0 0.00e+00    -  0.00e+00 4.91e-07R 10
 207r-9.8138524e+03 1.51e-04 9.94e+02  -5.0 4.92e+00    -  3.87e-01 5.50e-03f  1
 208 -9.8138524e+03 1.51e-04 1.16e+05  -6.0 8.62e+01    -  4.24e-02 8.29e-08h  2
 209r-9.8138524e+03 1.51e-04 1.00e+03  -5.0 0.00e+00    -  0.00e+00 4.75e-07R 10
iter    objective    inf_pr   inf_du lg(mu)  ||d||  lg(rg) alpha_du alpha_pr  ls
 210r-9.8138518e+03 1.20e-04 9.88e+02  -5.0 9.66e+00    -  4.91e-01 2.22e-02f  1
 211 -9.8138518e+03 1.20e-04 2.26e+05  -6.0 6.73e+01    -  8.15e-01 2.11e-07f  2
 212 -9.8138520e+03 1.20e-04 3.82e+05  -6.0 6.87e+03    -  5.07e-04 1.34e-04f  3
 213r-9.8138520e+03 1.20e-04 1.00e+03  -4.9 0.00e+00    -  0.00e+00 3.13e-07R 12
 214r-9.8138520e+03 1.19e-04 2.28e+03  -4.9 1.79e+01    -  8.97e-01 1.00e-03f  1
 215 -9.8138520e+03 1.19e-04 3.07e+04  -6.0 3.35e+03    -  1.29e-02 1.84e-07f  1
 216r-9.8138520e+03 1.19e-04 1.00e+03  -5.0 0.00e+00    -  0.00e+00 4.94e-07R 15
 217r-9.8138488e+03 1.16e-04 1.42e+03  -5.0 6.08e+01    -  6.95e-01 3.21e-03f  1
 218 -9.8138488e+03 1.16e-04 2.65e+05  -6.0 2.28e+03    -  3.98e-01 2.42e-08f  2
 219r-9.8138488e+03 1.16e-04 1.00e+03  -5.0 0.00e+00    -  0.00e+00 3.17e-07R 17
iter    objective    inf_pr   inf_du lg(mu)  ||d||  lg(rg) alpha_du alpha_pr  ls
 220r-9.8138436e+03 1.12e-04 1.47e+03  -5.0 6.89e+01    -  7.33e-01 4.56e-03f  1
 221r-9.8138436e+03 1.12e-04 9.99e+02  -5.0 0.00e+00    -  0.00e+00 7.65e-08R  2
 222r-9.8138378e+03 1.09e-04 1.47e+03  -5.0 8.60e+01    -  7.34e-01 4.00e-03f  1
 223 -9.8138401e+03 1.09e-04 2.83e+03  -6.0 4.13e+01    -  6.52e-01 2.31e-04f  1
 224 -9.8138413e+03 1.09e-04 3.60e+04  -6.0 7.55e+02    -  5.36e-01 4.54e-04f  1
 225r-9.8138413e+03 1.09e-04 1.00e+03  -5.0 0.00e+00    -  0.00e+00 1.71e-09R  2
 226r-9.8138412e+03 1.06e-04 1.87e+03  -5.0 1.03e+01    -  9.43e-01 4.29e-03f  1
 227r-9.8138412e+03 1.06e-04 9.99e+02  -5.0 0.00e+00    -  0.00e+00 3.32e-08R  2
 228r-9.8138410e+03 9.99e-05 9.82e+02  -5.0 4.57e+00    -  4.40e-01 1.68e-02f  1
 229 -9.8138435e+03 9.99e-05 2.47e+03  -6.0 4.08e+01    -  6.31e-01 2.56e-04f  1
iter    objective    inf_pr   inf_du lg(mu)  ||d||  lg(rg) alpha_du alpha_pr  ls
 230 -9.8138435e+03 9.99e-05 3.87e+04  -6.0 7.55e+02    -  5.36e-01 2.57e-06h  2
 231r-9.8138435e+03 9.99e-05 1.00e+03  -5.0 0.00e+00    -  0.00e+00 3.54e-07R  4
 232r-9.8138424e+03 9.67e-05 1.82e+03  -5.0 1.01e+01    -  9.45e-01 2.68e-02f  1
 233 -9.8138424e+03 9.67e-05 4.03e+05  -6.0 4.31e+01    -  1.65e-01 2.05e-07h  2
 234r-9.8138424e+03 9.67e-05 1.00e+03  -5.0 0.00e+00    -  0.00e+00 3.00e-07R  9
 235r-9.8138424e+03 9.61e-05 1.08e+03  -5.0 5.06e+00    -  5.40e-01 5.01e-03f  1
 236 -9.8138424e+03 9.61e-05 1.52e+05  -6.0 1.57e+02    -  1.05e-01 1.40e-07f  2
 237r-9.8138424e+03 9.61e-05 1.00e+03  -5.0 0.00e+00    -  0.00e+00 4.01e-07R 12
 238r-9.8138414e+03 9.38e-05 1.75e+03  -5.0 1.66e+01    -  9.02e-01 2.02e-02f  1
 239 -9.8138414e+03 9.38e-05 2.39e+05  -6.0 2.00e+02    -  6.95e-01 4.46e-07f  1
iter    objective    inf_pr   inf_du lg(mu)  ||d||  lg(rg) alpha_du alpha_pr  ls
 240r-9.8138414e+03 9.38e-05 1.00e+03  -5.0 0.00e+00    -  0.00e+00 2.52e-07R 13
 241r-9.8138409e+03 9.35e-05 1.72e+03  -5.0 2.74e+01    -  8.71e-01 2.78e-03f  1
 242r-9.8138409e+03 9.35e-05 9.99e+02  -5.0 0.00e+00    -  0.00e+00 2.14e-08R  2
 243r-9.8138408e+03 9.22e-05 1.07e+03  -5.0 4.44e+00    -  5.56e-01 1.21e-02f  1
 244 -9.8138426e+03 9.22e-05 3.84e+03  -6.0 4.04e+01    -  7.04e-01 1.84e-04f  1
 245 -9.8138426e+03 9.22e-05 3.40e+04  -6.0 7.55e+02    -  5.36e-01 1.47e-06h  2
 246r-9.8138426e+03 9.22e-05 1.00e+03  -5.0 0.00e+00    -  0.00e+00 4.98e-07R  3
 247r-9.8138407e+03 8.74e-05 1.81e+03  -5.0 9.82e+00    -  9.53e-01 4.50e-02f  1
 248 -9.8138407e+03 8.74e-05 3.45e+05  -6.0 4.20e+01    -  2.36e-01 3.42e-07h  2
 249r-9.8138407e+03 8.74e-05 1.00e+03  -5.0 0.00e+00    -  0.00e+00 3.12e-07R  9
iter    objective    inf_pr   inf_du lg(mu)  ||d||  lg(rg) alpha_du alpha_pr  ls
 250r-9.8138407e+03 8.72e-05 1.61e+03  -5.0 5.01e+00    -  8.15e-01 2.07e-03f  1
 251 -9.8138407e+03 8.72e-05 6.70e+04  -6.0 5.95e+02    -  7.23e-02 3.74e-07f  1
 252r-9.8138407e+03 8.72e-05 1.00e+03  -5.0 0.00e+00    -  0.00e+00 2.61e-07R 14
 253r-9.8138394e+03 8.63e-05 1.63e+03  -5.0 3.47e+01    -  8.29e-01 8.51e-03f  1
 254 -9.8138394e+03 8.63e-05 4.01e+05  -6.0 4.30e+02    -  7.55e-01 6.45e-08f  2
 255r-9.8138394e+03 8.63e-05 1.00e+03  -5.0 0.00e+00    -  0.00e+00 4.45e-07R 17
 256r-9.8138378e+03 8.59e-05 1.65e+03  -5.0 3.87e+01    -  8.41e-01 4.05e-03f  1
 257 -9.8138378e+03 8.59e-05 3.70e+05  -6.0 9.10e+01    -  4.66e-02 3.16e-08h  3
 258r-9.8138378e+03 8.59e-05 1.00e+03  -5.0 0.00e+00    -  0.00e+00 3.24e-07R  9
 259r-9.8138377e+03 8.46e-05 1.49e+03  -5.0 4.31e+00    -  7.68e-01 1.35e-02f  1
iter    objective    inf_pr   inf_du lg(mu)  ||d||  lg(rg) alpha_du alpha_pr  ls
 260 -9.8138377e+03 8.46e-05 3.08e+05  -6.0 5.49e+01    -  2.49e-01 1.50e-07h  2
 261r-9.8138377e+03 8.46e-05 1.00e+03  -5.0 0.00e+00    -  0.00e+00 4.82e-07R 12
 262r-9.8138367e+03 7.96e-05 1.80e+03  -5.0 7.00e+00    -  9.62e-01 5.00e-02f  1
 263 -9.8138367e+03 7.96e-05 1.91e+05  -6.0 1.64e+02    -  5.58e-01 4.53e-07f  2
 264r-9.8138367e+03 7.96e-05 1.00e+03  -5.0 0.00e+00    -  0.00e+00 4.51e-07R 13
 265r-9.8138366e+03 7.94e-05 1.87e+03  -5.0 1.06e+01    -  9.52e-01 2.90e-03f  1
 266 -9.8138367e+03 7.94e-05 1.98e+05  -6.0 1.49e+03    -  5.04e-01 4.88e-07f  1
 267r-9.8138367e+03 7.94e-05 1.00e+03  -5.0 0.00e+00    -  0.00e+00 4.04e-07R 17
 268r-9.8138263e+03 7.84e-05 1.62e+03  -5.0 4.43e+01    -  8.34e-01 1.26e-02f  1
 269r-9.8134975e+03 2.62e-02 1.45e+03  -5.0 7.26e+01    -  9.29e-01 2.38e-01f  1
iter    objective    inf_pr   inf_du lg(mu)  ||d||  lg(rg) alpha_du alpha_pr  ls
 270r-9.8132389e+03 6.30e-02 1.13e+03  -5.0 3.95e+01    -  7.92e-01 2.31e-01f  1
 271r-9.8127158e+03 8.28e-02 7.19e+02  -5.0 2.42e+01    -  7.35e-01 3.69e-01f  1
 272r-9.8116598e+03 4.58e-03 8.93e+00  -5.0 1.43e+01    -  1.00e+00 1.00e+00f  1
 273r-9.8115802e+03 1.28e-03 1.17e+00  -5.0 1.09e+00    -  1.00e+00 1.00e+00h  1
 274r-9.8115816e+03 4.47e-06 2.45e-03  -5.0 7.54e-02    -  1.00e+00 1.00e+00h  1
 275 -9.8115891e+03 4.46e-06 7.52e+02  -6.0 4.05e+01    -  5.23e-01 6.96e-04f  1
 276 -9.8115885e+03 1.66e-05 7.52e+02  -6.0 1.11e+03    -  7.50e-04 7.50e-04s 12
 277r-9.8115885e+03 1.66e-05 9.99e+02  -4.9 0.00e+00    -  0.00e+00 0.00e+00R  1
 278r-9.8115948e+03 1.41e-05 9.96e+02  -4.9 7.66e+02    -  1.15e-02 1.00e-03f  1
 279 -9.8115948e+03 1.41e-05 3.56e+04  -6.0 1.79e+03    -  1.34e-02 3.85e-07h  1
iter    objective    inf_pr   inf_du lg(mu)  ||d||  lg(rg) alpha_du alpha_pr  ls
 280 -9.8115687e+03 2.32e-03 3.55e+04  -6.0 2.15e+03    -  4.94e-03 4.94e-03s 15
 281r-9.8115687e+03 2.32e-03 1.00e+03  -2.8 0.00e+00    -  0.00e+00 0.00e+00R  1
 282r-9.8115686e+03 1.75e-03 9.97e+02  -2.8 1.05e+02    -  2.81e-03 2.47e-04f  1
 283r-9.8115683e+03 1.44e-04 2.10e+03  -2.8 4.80e+01    -  7.58e-03 3.81e-03f  1
 284r-9.8115656e+03 5.03e-04 2.13e+03  -2.8 4.26e+01    -  1.93e-02 3.21e-02f  1
 285r-9.8115613e+03 1.02e-03 3.04e+04  -2.8 3.58e+01    -  1.57e-01 4.72e-02f  1
 286r-9.8115260e+03 1.10e-02 2.28e+04  -2.8 2.52e+01    -  2.55e-01 2.95e-01f  1
 287r-9.8113650e+03 6.03e-02 1.31e+04  -2.8 1.66e+01    -  3.74e-01 1.00e+00f  1
 288r-9.8111187e+03 5.50e-03 4.42e+02  -2.8 3.06e+00    -  9.22e-01 1.00e+00f  1
 289r-9.8090371e+03 4.13e-02 2.07e+02  -2.8 1.81e+01    -  8.97e-01 1.00e+00f  1
iter    objective    inf_pr   inf_du lg(mu)  ||d||  lg(rg) alpha_du alpha_pr  ls
 290r-9.8087151e+03 5.01e-01 1.21e+02  -2.8 1.44e+02    -  9.90e-01 1.00e+00h  1
 291r-9.8084242e+03 8.44e-02 1.51e+01  -2.8 5.90e+01    -  1.00e+00 1.00e+00h  1
 292r-9.8081641e+03 2.50e-02 1.57e+00  -2.8 3.23e+01    -  1.00e+00 1.00e+00h  1
 293r-9.8080611e+03 3.79e-03 1.36e-01  -2.8 1.26e+01    -  1.00e+00 1.00e+00h  1
 294r-9.8080386e+03 4.14e-04 7.50e-03  -2.8 2.75e+00    -  1.00e+00 1.00e+00h  1
 295r-9.8089476e+03 1.22e-02 1.47e+03  -4.3 3.26e+01    -  5.00e-01 3.09e-01f  1
 296r-9.8096591e+03 2.51e-02 3.32e+03  -4.3 3.75e+01    -  6.00e-01 3.43e-01f  1
 297r-9.8098925e+03 2.19e-02 9.20e+03  -4.3 1.24e+01    -  6.64e-01 1.83e-01f  1
 298r-9.8102997e+03 1.38e-02 6.57e+03  -4.3 2.72e+01    -  6.73e-01 5.18e-01f  1
 299r-9.8103720e+03 1.15e-02 1.41e+04  -4.3 3.37e+01    -  9.38e-01 2.86e-01f  1
iter    objective    inf_pr   inf_du lg(mu)  ||d||  lg(rg) alpha_du alpha_pr  ls
 300r-9.8103622e+03 1.31e-02 2.43e+04  -4.3 3.22e+01    -  1.00e+00 4.31e-01f  1
 301r-9.8103375e+03 8.61e-03 4.98e+03  -4.3 1.79e+01    -  1.00e+00 7.92e-01f  1
 302r-9.8103269e+03 5.92e-04 2.81e+00  -4.3 3.71e+00    -  1.00e+00 1.00e+00f  1
 303r-9.8103252e+03 1.41e-05 2.71e-03  -4.3 3.35e-01    -  1.00e+00 1.00e+00h  1
 304r-9.8103252e+03 1.42e-05 2.01e-07  -4.3 1.49e-03    -  1.00e+00 1.00e+00h  1
 305r-9.8108092e+03 1.39e-03 1.15e+03  -6.8 9.06e+00    -  7.62e-01 6.34e-01f  1
 306r-9.8098992e+03 3.55e-02 8.30e+02  -6.8 1.04e+02    -  4.44e-01 3.87e-01f  1
 307r-9.8094740e+03 3.25e-02 1.06e+03  -6.8 5.83e+01    -  7.98e-01 3.62e-01f  1
 308r-9.8090925e+03 2.31e-02 3.52e+02  -6.8 3.52e+01    -  7.96e-01 6.93e-01f  1
 309r-9.8090584e+03 1.08e-02 1.93e+02  -6.8 9.29e+00    -  9.80e-01 5.62e-01h  1
iter    objective    inf_pr   inf_du lg(mu)  ||d||  lg(rg) alpha_du alpha_pr  ls
 310r-9.8090399e+03 2.70e-03 1.53e+02  -6.8 4.24e+00    -  1.00e+00 7.71e-01h  1
 311r-9.8090338e+03 3.04e-05 1.38e-02  -6.8 1.17e+00    -  1.00e+00 1.00e+00f  1
 312r-9.8090330e+03 4.32e-06 8.72e-05  -6.8 4.38e-02    -  1.00e+00 1.00e+00h  1
 313 -9.8090334e+03 4.32e-06 1.44e+03  -6.0 4.02e+01    -  6.42e-01 3.94e-05f  1
 314r-9.8090334e+03 4.32e-06 1.00e+03  -5.4 0.00e+00    -  0.00e+00 4.43e-07R 17
 315r-9.8090332e+03 4.32e-06 8.59e+02  -5.4 1.12e-01    -  2.77e-01 1.40e-01f  1
 316 -9.8090332e+03 4.32e-06 6.11e+04  -6.0 7.07e+02    -  1.16e-01 9.53e-07f  2
 317 -9.8090332e+03 4.32e-06 9.92e+04  -6.0 2.11e+03    -  4.51e-02 1.93e-06h 15
 318 -9.8090332e+03 4.32e-06 2.87e+05  -6.0 2.11e+03    -  2.43e-01 5.69e-07h 18
 319r-9.8090332e+03 4.32e-06 1.00e+03  -5.4 0.00e+00    -  0.00e+00 2.84e-07R 20
iter    objective    inf_pr   inf_du lg(mu)  ||d||  lg(rg) alpha_du alpha_pr  ls
 320r-9.8090327e+03 4.32e-06 7.41e+02  -5.4 1.73e-01    -  2.58e-01 4.31e-01f  1
 321 -9.8090327e+03 4.32e-06 2.74e+07  -6.0 2.26e+02    -  7.36e-01 3.70e-06f  1
 322 -9.8090327e+03 4.32e-06 2.75e+06  -6.0 2.80e+03    -  7.90e-06 7.92e-07h 19
 323 -9.8090266e+03 1.75e-04 2.74e+06  -6.0 2.11e+03    -  1.38e-03 1.38e-03s 22
 324 -9.8090205e+03 3.52e-04 2.74e+06  -6.0 2.10e+03    -  1.39e-03 1.39e-03s 22
 325 -9.8089488e+03 2.44e-02 2.70e+06  -6.0 2.10e+03    -  1.62e-02 1.62e-02s 22
 326 -9.8088484e+03 7.02e-02 2.63e+06  -6.0 2.07e+03    -  2.29e-02 2.29e-02s 22
 327r-9.8088484e+03 7.02e-02 1.00e+03  -1.3 0.00e+00    -  0.00e+00 0.00e+00R  1
 328r-9.8088484e+03 7.01e-02 5.12e+03  -1.3 8.60e+02    -  3.97e-05 1.22e-06f  1
 329r-9.8088485e+03 6.06e-02 5.38e+03  -1.3 6.54e+02    -  4.13e-05 1.41e-04f  1
iter    objective    inf_pr   inf_du lg(mu)  ||d||  lg(rg) alpha_du alpha_pr  ls
 330r-9.8088484e+03 4.86e-02 7.40e+03  -1.3 3.80e+02    -  6.13e-04 2.14e-04f  1
 331r-9.8088472e+03 1.32e-02 7.80e+03  -1.3 2.64e+02    -  1.34e-03 1.24e-03f  1
 332r-9.8088434e+03 4.21e-03 7.95e+03  -1.3 2.21e+02    -  3.11e-03 3.05e-03f  1
 333r-9.8088127e+03 4.38e-02 1.25e+04  -1.3 1.90e+02    -  1.05e-02 2.11e-02f  1
 334r-9.8087740e+03 6.26e-02 3.11e+03  -1.3 1.23e+02    -  4.98e-02 2.34e-02f  1
 335r-9.8086359e+03 1.88e-01 1.36e+04  -1.3 8.99e+01    -  1.41e-01 7.24e-02f  1
 336r-9.8083406e+03 3.64e-01 1.42e+04  -1.3 6.80e+01    -  1.56e-01 1.26e-01f  1
 337r-9.8079197e+03 4.25e-01 1.63e+04  -1.3 6.43e+01    -  2.50e-01 1.51e-01f  1
 338r-9.8063759e+03 7.66e-01 8.91e+03  -1.3 6.03e+01    -  3.64e-01 4.06e-01f  1
 339r-9.8031143e+03 5.50e-01 3.53e+03  -1.3 4.99e+01    -  5.18e-01 6.17e-01f  1
iter    objective    inf_pr   inf_du lg(mu)  ||d||  lg(rg) alpha_du alpha_pr  ls
 340r-9.7976024e+03 1.26e-01 1.79e+03  -1.3 3.09e+01    -  7.71e-01 1.00e+00f  1
 341r-9.7991075e+03 2.64e+00 9.51e+01  -1.3 3.31e+02    -  9.82e-01 1.00e+00f  1
 342r-9.7990468e+03 2.49e+00 1.27e+04  -1.3 1.28e+02    -  4.99e-01 5.64e-02h  2
 343r-9.7988020e+03 2.49e+00 1.55e+04  -1.3 1.39e+02    -  1.00e+00 2.11e-01h  2
 344r-9.7983135e+03 3.03e+00 5.60e+03  -1.3 1.41e+02    -  1.00e+00 4.18e-01h  2
 345r-9.7975738e+03 1.73e+00 1.00e+04  -1.3 9.80e+01    -  1.00e+00 9.14e-01H  1
 346r-9.7974295e+03 6.71e-01 9.39e+02  -1.3 1.71e+01    -  1.00e+00 1.00e+00f  1
 347r-9.7974300e+03 7.05e-01 1.08e+03  -1.3 5.91e+00    -  1.00e-01 1.54e-02h  6
 348r-9.7974299e+03 1.82e-01 4.36e+01  -1.3 1.09e-03   2.0 1.00e+00 1.00e+00h  1
 349r-9.7974299e+03 1.82e-01 2.50e+01  -1.3 1.22e-03   1.5 1.00e+00 1.00e+00h  1
iter    objective    inf_pr   inf_du lg(mu)  ||d||  lg(rg) alpha_du alpha_pr  ls
 350r-9.7974232e+03 1.85e-01 6.44e+02  -1.3 9.00e-01    -  1.00e+00 1.00e+00H  1
 351r-9.7974232e+03 1.90e-01 1.12e+01  -1.3 4.15e-02    -  1.00e+00 1.00e+00H  1
 352r-9.7989093e+03 2.45e-01 2.51e+03  -2.0 8.68e+01    -  4.93e-01 3.58e-01f  1
 353r-9.7989183e+03 3.99e-01 5.79e+03  -2.0 1.04e-01   1.0 7.68e-01 5.47e-01f  1
 354r-9.7991916e+03 3.56e-01 5.44e+03  -2.0 1.51e+02    -  1.52e-01 1.05e-01f  1
 355r-9.7992018e+03 3.47e-01 5.40e+03  -2.0 2.41e+02    -  5.81e-02 2.34e-02f  1
 356r-9.7994542e+03 2.98e-01 8.22e+03  -2.0 2.25e+01    -  4.18e-01 1.36e-01f  1
 357r-9.8000710e+03 1.88e-01 1.14e+04  -2.0 1.98e+01    -  9.92e-01 3.19e-01f  1
 358r-9.8009795e+03 1.79e-01 5.22e+03  -2.0 1.54e+01    -  1.00e+00 5.71e-01f  1
 359r-9.8017513e+03 2.83e-01 7.15e+02  -2.0 7.04e+00    -  1.00e+00 8.72e-01f  1
iter    objective    inf_pr   inf_du lg(mu)  ||d||  lg(rg) alpha_du alpha_pr  ls
 360r-9.8018665e+03 6.90e-02 3.56e+03  -2.0 9.95e-01    -  1.00e+00 1.00e+00f  1
 361r-9.8018659e+03 3.78e-02 1.71e+03  -2.0 2.41e-01    -  1.00e+00 1.00e+00h  1
 362r-9.8018657e+03 2.55e-02 9.79e+02  -2.0 5.82e-02    -  1.00e+00 1.00e+00h  1
 363r-9.8018659e+03 7.51e-03 6.38e+01  -2.0 5.93e-02    -  1.00e+00 1.00e+00h  1
 364r-9.8018659e+03 7.51e-03 4.26e-01  -2.0 4.80e-03    -  1.00e+00 1.00e+00h  1
 365r-9.8032401e+03 4.28e-01 1.97e+03  -2.7 4.83e+01    -  5.28e-01 3.79e-01f  1
 366r-9.8037642e+03 1.55e+00 2.20e+03  -2.7 1.53e+01    -  3.75e-01 3.01e-01f  1
 367r-9.8037879e+03 7.62e-01 1.44e+03  -2.7 7.19e-02   0.6 9.88e-01 8.31e-01f  1
 368r-9.8038503e+03 1.40e-01 5.07e+02  -2.7 1.41e-01   0.1 1.00e+00 7.43e-01f  1
 369r-9.8040290e+03 2.07e-01 7.75e+02  -2.7 3.75e-01  -0.4 9.50e-01 8.03e-01f  1
iter    objective    inf_pr   inf_du lg(mu)  ||d||  lg(rg) alpha_du alpha_pr  ls
 370r-9.8042119e+03 5.35e-01 1.11e+03  -2.7 1.85e+01    -  1.31e-01 1.25e-01f  1
 371r-9.8044680e+03 4.31e-01 7.59e+02  -2.7 1.23e+01    -  9.72e-01 2.15e-01f  1
 372r-9.8045454e+03 3.92e-01 5.37e+02  -2.7 9.30e+00    -  1.00e+00 9.33e-02h  1
 373r-9.8051998e+03 1.20e-01 6.93e+01  -2.7 8.41e+00    -  1.00e+00 9.21e-01f  1
 374r-9.8052558e+03 2.79e-03 2.01e+02  -2.7 1.46e+00    -  1.00e+00 1.00e+00h  1
 375r-9.8052535e+03 4.36e-03 1.70e+01  -2.7 1.43e-01    -  1.00e+00 1.00e+00h  1
 376r-9.8052540e+03 4.01e-04 8.60e-02  -2.7 5.45e-02    -  1.00e+00 1.00e+00h  1
 377r-9.8063269e+03 2.42e-02 7.51e+01  -3.4 4.03e+01    -  5.18e-01 5.11e-01f  1
 378r-9.8066500e+03 1.57e-02 3.87e+03  -3.4 1.07e+01    -  9.22e-01 3.44e-01f  1
 379r-9.8069324e+03 9.81e-03 5.03e+03  -3.4 1.02e+01    -  1.00e+00 4.90e-01f  1
iter    objective    inf_pr   inf_du lg(mu)  ||d||  lg(rg) alpha_du alpha_pr  ls
 380r-9.8070647e+03 5.85e-03 4.44e+03  -3.4 5.76e+00    -  1.00e+00 4.98e-01f  1
 381r-9.8071617e+03 1.41e-03 1.02e+01  -3.4 3.17e+00    -  1.00e+00 1.00e+00f  1
 382r-9.8071561e+03 9.75e-05 2.81e-02  -3.4 3.05e-01    -  1.00e+00 1.00e+00h  1
 383r-9.8071561e+03 9.81e-05 6.50e-07  -3.4 3.30e-03    -  1.00e+00 1.00e+00h  1
 384r-9.8076999e+03 5.46e-03 4.47e+03  -5.3 3.56e+01    -  6.12e-01 3.78e-01f  1
 385r-9.8076286e+03 4.81e-03 2.46e+04  -5.3 4.29e+01    -  6.13e-01 1.31e-01f  1
 386r-9.8073684e+03 1.47e-02 1.89e+04  -5.3 5.35e+01    -  6.37e-01 4.10e-01f  1
 387r-9.8073580e+03 1.19e-02 8.39e+03  -5.3 2.56e+01    -  9.05e-01 6.51e-01f  1
 388r-9.8076575e+03 4.68e-03 3.48e+03  -5.3 6.67e+00    -  1.00e+00 6.16e-01f  1
 389r-9.8079353e+03 1.76e-03 7.75e+02  -5.3 7.79e+00    -  1.00e+00 7.79e-01f  1
iter    objective    inf_pr   inf_du lg(mu)  ||d||  lg(rg) alpha_du alpha_pr  ls
 390r-9.8080507e+03 2.39e-04 2.14e-01  -5.3 3.26e+00    -  1.00e+00 1.00e+00f  1
 391r-9.8080556e+03 4.14e-06 8.72e-04  -5.3 1.75e-01    -  1.00e+00 1.00e+00h  1
Restoration phase converged to a feasible point that is
unacceptable to the filter for the original problem.
Restoration phase in the restoration phase failed.

Number of Iterations....: 391

                                   (scaled)                 (unscaled)
Objective...............:  -9.8080555763609282e+03   -9.8080555763609282e+03
Dual infeasibility......:   1.0000000628023440e+00    1.0000000628023440e+00
Constraint violation....:   4.1395634724736648e-06    4.1395634724736648e-06
Complementarity.........:   5.1312075361079725e-06    5.1312075361079725e-06
Overall NLP error.......:   1.0000000628023440e+00    1.0000000628023440e+00


Number of objective function evaluations             = 1016
Number of objective gradient evaluations             = 251
Number of equality constraint evaluations            = 1016
Number of inequality constraint evaluations          = 1016
Number of equality constraint Jacobian evaluations   = 455
Number of inequality constraint Jacobian evaluations = 455
Number of Lagrangian Hessian evaluations             = 392
Total CPU secs in IPOPT (w/o function evaluations)   =    278.754
Total CPU secs in NLP function evaluations           =     13.689

EXIT: Restoration Failed!
